Minimize
  - 11 y_0 - 9 y_1 - 5 y_2 - 12 y_3 - 13 y_4 - 5 y_5 - 8 y_6 - 7 y_7 - 7 y_8
   - 6 y_9 - 5 y_10 - 9 y_11 - 10 y_12 - 5 y_13 - 11 y_14 - 9 y_15
   - 11 y_16 - 7 y_17 - 8 y_18 - 10 y_20 - 4 y_21 - 8 y_22 - 8 y_23
   - 10 y_24 - 3 y_25 - 9 y_26 - 6 y_27 - 8 y_28 - 13 y_29 - 8 y_30
   - 10 y_31 - 7 y_32 - 7 y_33 - 4 y_34 - 11 y_35 - 9 y_36 - 8 y_37
   - 9 y_38 - 7 y_39 - 12 y_40 - 2 y_41 - 6 y_42 - 9 y_43 - 5 y_44 - 5 y_45
   - 6 y_46 - 6 y_47 - 8 y_48 - 10 y_49 + 386 Constant
Subject To
 c_0: y_12 = 1
 c_1_0: y_0 >= 1
 c_1_1: y_1 >= 1
 c_1_2: y_2 + y_45 >= 1
 c_1_3: y_3 + y_4 >= 1
 c_1_4: y_3 + y_4 >= 1
 c_1_5: y_5 + y_13 >= 1
 c_1_6: y_6 + y_17 + y_32 >= 1
 c_1_7: y_7 + y_27 + y_32 >= 1
 c_1_8: y_8 + y_33 + y_38 >= 1
 c_1_9: y_9 + y_42 >= 1
 c_1_10: y_10 + y_44 + y_47 >= 1
 c_1_11: y_11 >= 1
 c_1_12: y_12 + y_15 >= 1
 c_1_13: y_5 + y_13 >= 1
 c_1_14: y_14 + y_24 >= 1
 c_1_15: y_12 + y_15 + y_30 >= 1
 c_1_16: y_16 + y_20 >= 1
 c_1_17: y_6 + y_17 + y_27 + y_47 >= 1
 c_1_18: y_18 + y_22 + y_28 + y_48 >= 1
 c_1_19: y_19 >= 1
 c_1_20: y_16 + y_20 + y_49 >= 1
 c_1_21: y_21 >= 1
 c_1_22: y_18 + y_22 + y_28 >= 1
 c_1_23: y_23 + y_26 + y_43 >= 1
 c_1_24: y_14 + y_24 + y_36 >= 1
 c_1_25: y_25 + y_41 >= 1
 c_1_26: y_23 + y_26 + y_43 >= 1
 c_1_27: y_7 + y_17 + y_27 + y_32 + y_47 >= 1
 c_1_28: y_18 + y_22 + y_28 + y_48 >= 1
 c_1_29: y_29 >= 1
 c_1_30: y_15 + y_30 >= 1
 c_1_31: y_31 >= 1
 c_1_32: y_6 + y_7 + y_27 + y_32 >= 1
 c_1_33: y_8 + y_33 >= 1
 c_1_34: y_34 + y_46 >= 1
 c_1_35: y_35 >= 1
 c_1_36: y_24 + y_36 >= 1
 c_1_37: y_37 >= 1
 c_1_38: y_8 + y_38 >= 1
 c_1_39: y_39 >= 1
 c_1_40: y_40 >= 1
 c_1_41: y_25 + y_41 >= 1
 c_1_42: y_9 + y_42 >= 1
 c_1_43: y_23 + y_26 + y_43 >= 1
 c_1_44: y_10 + y_44 + y_47 >= 1
 c_1_45: y_2 + y_45 >= 1
 c_1_46: y_34 + y_46 >= 1
 c_1_47: y_10 + y_17 + y_27 + y_44 + y_47 >= 1
 c_1_48: y_18 + y_28 + y_48 >= 1
 c_1_49: y_20 + y_49 >= 1
Bounds
 Constant = 1
Binaries
 y_0 y_1 y_2 y_3 y_4 y_5 y_6 y_7 y_8 y_9 y_10 y_11 y_12 y_13 y_14 y_15 y_16
 y_17 y_18 y_19 y_20 y_21 y_22 y_23 y_24 y_25 y_26 y_27 y_28 y_29 y_30 y_31
 y_32 y_33 y_34 y_35 y_36 y_37 y_38 y_39 y_40 y_41 y_42 y_43 y_44 y_45 y_46
 y_47 y_48 y_49
End
